Version identifier: 20.1.0.0 | 2020-11-10 | 9bedb6d68
CPXPARAM_RandomSeed                              1234
CPXPARAM_TimeLimit                               3600
Tried aggregator 1 time.
Reduced MIP has 657 rows, 215496 columns, and 430992 nonzeros.
Reduced MIP has 215496 binaries, 0 generals, 0 SOSs, and 0 indicators.
Presolve time = 0.23 sec. (160.21 ticks)
Found incumbent of value 846724.699441 after 0.68 sec. (474.26 ticks)
Tried aggregator 1 time.
Detecting symmetries...
Reduced MIP has 657 rows, 215496 columns, and 430992 nonzeros.
Reduced MIP has 215496 binaries, 0 generals, 0 SOSs, and 0 indicators.
Presolve time = 0.32 sec. (201.70 ticks)
Probing time = 0.14 sec. (10.32 ticks)
MIP emphasis: balance optimality and feasibility.
MIP search method: dynamic search.
Parallel mode: deterministic, using up to 8 threads.
Root relaxation solution time = 0.77 sec. (218.58 ticks)

        Nodes                                         Cuts/
   Node  Left     Objective  IInf  Best Integer    Best Bound    ItCnt     Gap

*     0+    0                       846724.6994        0.0000           100.00%
*     0+    0                       266514.3504        0.0000           100.00%
      0     0    46661.9147    94   266514.3504    46661.9147      997   82.49%
*     0+    0                        54568.6753    46661.9147            14.49%
      0     0    46941.3134    93    54568.6753      Cuts: 53     1096   13.98%
      0     0    46990.9653    68    54568.6753      Cuts: 22     1142   13.89%
      0     0    47016.6939    84    54568.6753  ZeroHalf: 11     1161   13.84%
*     0+    0                        51536.6051    47016.6939             8.77%
      0     0  -1.00000e+75     0    51536.6051    47016.6939     1161    8.77%
*     0+    0                        50221.6805    47016.6939             6.38%
      0     0    47039.3013    32    50221.6805      Cuts: 10     1191    6.34%
      0     0    47047.6579    46    50221.6805       Cuts: 7     1198    6.32%
Detecting symmetries...
      0     0    47047.8669    40    50221.6805       Cuts: 2     1199    6.32%
*     0+    0                        48814.5705    47047.8669             3.62%
*     0+    0                        48668.2047    47047.8669             3.33%
*     0+    0                        48331.6671    47047.8669             2.66%
*     0+    0                        48111.5086    47047.8669             2.21%
      0     0  -1.00000e+75     0    48111.5086    47047.8669     1199    2.21%
Detecting symmetries...

Repeating presolve.
Tried aggregator 1 time.
MIP Presolve eliminated 0 rows and 121008 columns.
Reduced MIP has 657 rows, 94488 columns, and 188976 nonzeros.
Reduced MIP has 94488 binaries, 0 generals, 0 SOSs, and 0 indicators.
Presolve time = 0.11 sec. (106.00 ticks)
Tried aggregator 1 time.
Detecting symmetries...
Reduced MIP has 657 rows, 94488 columns, and 188976 nonzeros.
Reduced MIP has 94488 binaries, 0 generals, 0 SOSs, and 0 indicators.
Presolve time = 0.10 sec. (86.30 ticks)
Represolve time = 0.42 sec. (424.52 ticks)
Probing time = 0.04 sec. (3.97 ticks)
MIP emphasis: balance optimality and feasibility.
MIP search method: dynamic search.
Parallel mode: deterministic, using up to 8 threads.
Root relaxation solution time = 0.14 sec. (129.06 ticks)

        Nodes                                         Cuts/
   Node  Left     Objective  IInf  Best Integer    Best Bound    ItCnt     Gap

*     0+    0                        48111.5086    47047.8669             2.21%
      0     0    47047.8669    40    48111.5086    47047.8669     2396    2.21%
*     0+    0                        47957.2184    47047.8669             1.90%
      0     0    47051.2590    54    47957.2184       Cuts: 4     2403    1.89%
      0     0    47069.2627    46    47957.2184       Cuts: 9     2416    1.85%
      0     0    47071.0881    48    47957.2184       Cuts: 4     2423    1.85%
      0     0    47078.8922    61    47957.2184       Cuts: 3     2444    1.83%
      0     0    47084.7354    22    47957.2184       Cuts: 7     2455    1.82%
Detecting symmetries...
      0     0    47086.8519   125    47957.2184       Cuts: 4     2469    1.81%
      0     0    47087.9841    55    47957.2184   ZeroHalf: 2     2475    1.81%
*     0+    0                        47770.5754    47087.9841             1.43%
      0     0  -1.00000e+75     0    47770.5754    47087.9841     2475    1.43%
*     0+    0                        47733.0038    47087.9841             1.35%
*     0+    0                        47712.8806    47087.9841             1.31%
*     0+    0                        47712.3271    47087.9841             1.31%
*     0+    0                        47680.6306    47087.9841             1.24%
      0     0  -1.00000e+75     0    47680.6306    47087.9841     2475    1.24%
Detecting symmetries...

Repeating presolve.
Tried aggregator 1 time.
MIP Presolve eliminated 0 rows and 53669 columns.
Reduced MIP has 657 rows, 40819 columns, and 81638 nonzeros.
Reduced MIP has 40819 binaries, 0 generals, 0 SOSs, and 0 indicators.
Presolve time = 0.05 sec. (46.43 ticks)
Tried aggregator 1 time.
Detecting symmetries...
Reduced MIP has 657 rows, 40819 columns, and 81638 nonzeros.
Reduced MIP has 40819 binaries, 0 generals, 0 SOSs, and 0 indicators.
Presolve time = 0.04 sec. (37.49 ticks)
Represolve time = 0.31 sec. (321.59 ticks)
Probing time = 0.02 sec. (2.44 ticks)
MIP emphasis: balance optimality and feasibility.
MIP search method: dynamic search.
Parallel mode: deterministic, using up to 8 threads.
Root relaxation solution time = 0.06 sec. (61.31 ticks)

        Nodes                                         Cuts/
   Node  Left     Objective  IInf  Best Integer    Best Bound    ItCnt     Gap

*     0+    0                        47680.6306    47087.9841             1.24%
      0     0    47087.9841    55    47680.6306    47087.9841     3731    1.24%
*     0+    0                        47633.6643    47087.9841             1.15%
      0     0    47089.9142    59    47633.6643       Cuts: 5     3736    1.14%
      0     0    47092.5765    30    47633.6643       Cuts: 8     3746    1.14%
      0     0    47095.5240    71    47633.6643       Cuts: 6     3757    1.13%
*     0+    0                        47338.2851    47095.5240             0.51%
      0     0    47096.1495    22    47338.2851       Cuts: 4     3761    0.51%
*     0+    0                        47303.8228    47096.1495             0.44%
      0     0  -1.00000e+75     0    47303.8228    47096.1495     3761    0.44%
Detecting symmetries...

Repeating presolve.
Tried aggregator 1 time.
MIP Presolve eliminated 0 rows and 31481 columns.
Reduced MIP has 657 rows, 9338 columns, and 18676 nonzeros.
Reduced MIP has 9338 binaries, 0 generals, 0 SOSs, and 0 indicators.
Presolve time = 0.02 sec. (17.10 ticks)
Tried aggregator 1 time.
Detecting symmetries...
Reduced MIP has 657 rows, 9338 columns, and 18676 nonzeros.
Reduced MIP has 9338 binaries, 0 generals, 0 SOSs, and 0 indicators.
Presolve time = 0.01 sec. (8.86 ticks)
Represolve time = 0.15 sec. (175.93 ticks)
Probing time = 0.00 sec. (0.57 ticks)
MIP emphasis: balance optimality and feasibility.
MIP search method: dynamic search.
Parallel mode: deterministic, using up to 8 threads.
Root relaxation solution time = 0.03 sec. (18.01 ticks)

        Nodes                                         Cuts/
   Node  Left     Objective  IInf  Best Integer    Best Bound    ItCnt     Gap

*     0+    0                        47303.8228    47096.1495             0.44%
      0     0    47096.1495    22    47303.8228    47096.1495     4933    0.44%
*     0+    0                        47290.0231    47096.1495             0.41%
      0     0    47097.4771    34    47290.0231       Cuts: 5     4951    0.41%
      0     0    47098.4752    49    47290.0231       Cuts: 7     4962    0.41%
      0     0    47099.7435    26    47290.0231       Cuts: 6     4968    0.40%
      0     0    47100.2466    32    47290.0231       Cuts: 2     4971    0.40%
      0     0    47100.6461    26    47290.0231       Cuts: 3     4973    0.40%
Detecting symmetries...
      0     0    47100.6604    26    47290.0231       Cuts: 4     4975    0.40%
*     0+    0                        47143.2355    47100.6604             0.09%
      0     0  -1.00000e+75     0    47143.2355    47100.6604     4975    0.09%
Detecting symmetries...

Repeating presolve.
Tried aggregator 3 times.
MIP Presolve eliminated 18 rows and 7339 columns.
Aggregator did 37 substitutions.
Reduced MIP has 602 rows, 1962 columns, and 3924 nonzeros.
Reduced MIP has 1962 binaries, 0 generals, 0 SOSs, and 0 indicators.
Presolve time = 0.01 sec. (6.37 ticks)
Probing time = 0.00 sec. (0.74 ticks)
Tried aggregator 1 time.
Detecting symmetries...
Reduced MIP has 602 rows, 1962 columns, and 3924 nonzeros.
Reduced MIP has 1962 binaries, 0 generals, 0 SOSs, and 0 indicators.
Presolve time = 0.00 sec. (2.45 ticks)
Represolve time = 0.14 sec. (143.15 ticks)
Probing time = 0.00 sec. (0.74 ticks)
Clique table members: 410.
MIP emphasis: balance optimality and feasibility.
MIP search method: dynamic search.
Parallel mode: deterministic, using up to 8 threads.
Root relaxation solution time = 0.01 sec. (10.20 ticks)

        Nodes                                         Cuts/
   Node  Left     Objective  IInf  Best Integer    Best Bound    ItCnt     Gap

*     0+    0                        47143.2355    47100.6604             0.09%
      0     0    47100.6604    26    47143.2355    47100.6604     5906    0.09%
      0     0    47101.7591    28    47143.2355       Cuts: 9     5911    0.09%
      0     0    47103.7564    90    47143.2355       Cuts: 5     5922    0.08%
      0     0    47104.4304    16    47143.2355      Cuts: 15     5926    0.08%
      0     0    47106.7862    30    47143.2355       Cuts: 3     5937    0.08%
      0     0    47107.8729    97    47143.2355       Cuts: 5     5951    0.08%
Detecting symmetries...
*     0+    0                        47140.7121    47107.8729             0.07%
      0     0    47107.9785    14    47140.7121       Cuts: 7     5953    0.07%
      0     0    47108.5888     5    47140.7121       Cuts: 6     5955    0.07%
      0     0    47108.8252    10    47140.7121       Cuts: 5     5961    0.07%
*     0+    0                        47122.2480    47108.8252             0.03%
*     0+    0                        47121.8860    47109.1541             0.03%
      0     0  -1.00000e+75     0    47121.8860    47109.1541     5963    0.03%
Detecting symmetries...

Repeating presolve.
Tried aggregator 4 times.
MIP Presolve eliminated 96 rows and 1055 columns.
MIP Presolve modified 8 coefficients.
Aggregator did 176 substitutions.
Reduced MIP has 330 rows, 731 columns, and 1459 nonzeros.
Reduced MIP has 731 binaries, 0 generals, 0 SOSs, and 0 indicators.
Presolve time = 0.00 sec. (3.49 ticks)
Probing fixed 3 vars, tightened 0 bounds.
Probing time = 0.00 sec. (0.43 ticks)
Cover probing fixed 1 vars, tightened 0 bounds.
Tried aggregator 2 times.
MIP Presolve eliminated 7 rows and 16 columns.
Aggregator did 3 substitutions.
Reduced MIP has 320 rows, 712 columns, and 1424 nonzeros.
Reduced MIP has 712 binaries, 0 generals, 0 SOSs, and 0 indicators.
Presolve time = 0.00 sec. (1.62 ticks)
Probing fixed 1 vars, tightened 0 bounds.
Probing time = 0.00 sec. (0.43 ticks)
Tried aggregator 1 time.
Detecting symmetries...
MIP Presolve eliminated 1 rows and 2 columns.
Reduced MIP has 319 rows, 710 columns, and 1420 nonzeros.
Reduced MIP has 710 binaries, 0 generals, 0 SOSs, and 0 indicators.
Presolve time = 0.00 sec. (1.02 ticks)
Represolve time = 0.21 sec. (217.77 ticks)
Probing time = 0.00 sec. (0.40 ticks)
Clique table members: 842.
MIP emphasis: balance optimality and feasibility.
MIP search method: dynamic search.
Parallel mode: deterministic, using up to 8 threads.
Root relaxation solution time = 0.01 sec. (5.42 ticks)

        Nodes                                         Cuts/
   Node  Left     Objective  IInf  Best Integer    Best Bound    ItCnt     Gap

*     0+    0                        47121.8860    47109.1541             0.03%
      0     0    47108.9571     7    47121.8860    47109.1541     6412    0.03%
      0     0    47109.1542     8    47121.8860       Cuts: 6     6416    0.03%
      0     0    47109.5337    23    47121.8860       Cuts: 5     6418    0.03%
Detecting symmetries...
      0     2    47109.5337    23    47121.8860    47112.4821     6418    0.02%
Elapsed time = 30.04 sec. (19351.91 ticks, tree = 0.02 MB, solutions = 23)

Clique cuts applied:  2
Cover cuts applied:  23
Zero-half cuts applied:  111
Lift and project cuts applied:  4
Gomory fractional cuts applied:  22

Root node processing (before b&c):
  Real time             =   30.05 sec. (19385.19 ticks)
Parallel b&c, 8 threads:
  Real time             =    0.05 sec. (16.94 ticks)
  Sync time (average)   =    0.02 sec.
  Wait time (average)   =    0.00 sec.
                          ------------
Total (root+branch&cut) =   30.10 sec. (19402.13 ticks)
